(set-logic QF_S)
(declare-fun var0 () String)
(assert (str.in.re var0 (re.++ (re.union (re.union (re.* (re.union (re.+ (str.to.re "0")) (re.+ (str.to.re "11")))) (re.* (re.* (re.+ (str.to.re "222"))))) (re.union (re.+ (re.+ (re.union (str.to.re "3") (str.to.re "44")))) (re.+ (re.union (re.+ (str.to.re "5")) (re.+ (str.to.re "666")))))) (re.* (re.union (re.* (re.* (re.+ (str.to.re "7")))) (re.* (re.union (re.union (str.to.re "8") (str.to.re "99")) (re.union (str.to.re "a") (str.to.re "bb")))))))))
(assert (<= 15 (str.len var0)))
(check-sat)